Geometry = GenFormat {
64 S
Si
1  1 -0.040000 0.000000 0.000000
2  1 0.000000 0.000000 5.400000
3  1 0.000000 2.700000 2.700000
4  1 0.000000 2.700000 8.100000
5  1 0.000000 5.400000 0.000000
6  1 0.000000 5.400000 5.400000
7  1 0.000000 8.100000 2.700000
8  1 0.000000 8.100000 8.100000
9  1 1.350000 1.350000 1.350000
10  1 1.350000 1.350000 6.750000
11  1 1.350000 4.050000 4.050000
12  1 1.350000 4.050000 9.450000
13  1 1.350000 6.750000 1.350000
14  1 1.350000 6.750000 6.750000
15  1 1.350000 9.450000 4.050000
16  1 1.350000 9.450000 9.450000
17  1 2.700000 0.000000 2.660000
18  1 2.700000 0.000000 8.100000
19  1 2.700000 2.700000 0.000000
20  1 2.700000 2.700000 5.400000
21  1 2.700000 5.400000 2.700000
22  1 2.700000 5.400000 8.100000
23  1 2.700000 8.100000 0.000000
24  1 2.700000 8.100000 5.400000
25  1 4.050000 1.350000 4.050000
26  1 4.050000 1.350000 9.450000
27  1 4.050000 4.050000 1.350000
28  1 4.050000 4.050000 6.750000
29  1 4.050000 6.750000 4.050000
30  1 4.050000 6.750000 9.450000
31  1 4.050000 9.450000 1.350000
32  1 4.050000 9.450000 6.750000
33  1 5.400000 0.000000 0.000000
34  1 5.400000 0.000000 5.400000
35  1 5.400000 2.700000 2.700000
36  1 5.400000 2.700000 8.100000
37  1 5.400000 5.400000 0.000000
38  1 5.400000 5.400000 5.400000
39  1 5.400000 8.100000 2.700000
40  1 5.400000 8.100000 8.100000
41  1 6.750000 1.350000 1.350000
42  1 6.750000 1.350000 6.750000
43  1 6.750000 4.050000 4.050000
44  1 6.750000 4.050000 9.450000
45  1 6.750000 6.750000 1.350000
46  1 6.750000 6.750000 6.750000
47  1 6.750000 9.450000 4.050000
48  1 6.750000 9.450000 9.450000
49  1 8.100000 0.000000 2.700000
50  1 8.100000 0.000000 8.100000
51  1 8.100000 2.700000 0.000000
52  1 8.100000 2.700000 5.400000
53  1 8.100000 5.400000 2.700000
54  1 8.100000 5.400000 8.100000
55  1 8.100000 8.100000 0.000000
56  1 8.100000 8.100000 5.400000
57  1 9.450000 1.350000 4.050000
58  1 9.450000 1.350000 9.450000
59  1 9.450000 4.050000 1.350000
60  1 9.450000 4.050000 6.750000
61  1 9.450000 6.750000 4.050000
62  1 9.450000 6.750000 9.450000
63  1 9.450000 9.450000 1.350000
64  1 9.450000 9.450000 6.750000
0.000000 0.000000 0.000000
10.800000 0.000000 0.000000
0.000000 10.800000 0.000000
0.000000  0.000000 10.800000
}
Driver = {}
Hamiltonian = xTB {
  Method = "GFN2-xTB"
  KPointsAndWeights = SupercellFolding {
6 0 0
0 6 0
0 0 6
0.5 0.5 0.5
  }
  ShellResolvedSCC = Yes
  SCC = Yes
  ReadInitialCharges = No
  InitialCharges = {}
  SCCTolerance = 1.0000000000000001E-005
  EwaldParameter = 0.0000000000000000
  EwaldTolerance = 1.0000000000000001E-009
  ConvergentSCCOnly = Yes
  SpinPolarisation = {}
  ElectricField = {}
  Solver = RelativelyRobust {}
  Charge = 0.0000000000000000
  MaxSCCIterations = 100
  Dispersion = {}
  Solvation = {}
  Electrostatics = GammaFunctional {}
  Differentiation = FiniteDiff {
    Delta = 1.2207031250000000E-004
  }
  ForceEvaluation = "Traditional"
  Mixer = Broyden {
    MixingParameter = 0.20000000000000001
    InverseJacobiWeight = 1.0000000000000000E-002
    MinimalWeight = 1.0000000000000000
    MaximalWeight = 100000.00000000000
    WeightFactor = 1.0000000000000000E-002
  }
  Filling = Fermi {
    Temperature = 9.5004460357391702E-004
    IndependentKFilling = No
  }
}
Options = {
  WriteResultsTag = Yes
  WriteDetailedOut = Yes
  WriteAutotestTag = No
  WriteDetailedXML = No
  RestartFrequency = 20
  RandomSeed = 0
  WriteHS = No
  WriteRealHS = No
  MinimiseMemoryUsage = No
  ShowFoldedCoords = No
  TimingVerbosity = 1
  WriteChargesAsText = No
}
Analysis = {
  CalculateForces = Yes
  ProjectStates = {}
  WriteEigenvectors = No
  WriteBandOut = Yes
  MullikenAnalysis = Yes
  WriteNetCharges = No
  AtomResolvedEnergies = No
}
ParserOptions = {
  ParserVersion = 11
  WriteHSDInput = Yes
  StopAfterParsing = No
  IgnoreUnprocessedNodes = No
}
Reks = None {}
ExcitedState = {}
