units           metal
atom_style      atomic
boundary        p p p

read_data       tmp.lammps

pair_style      oc20  /home/username/lammps/potentials/OC20DRIVER
#pair_style      oc20/gpu /home/username/lammps/potentials/OC20DRIVER

#pair_coeff 	 * * GemNet-dT Si
#pair_coeff      * * DimeNet++ Si
#pair_coeff      * * CGCNN Si
#pair_coeff      * * SchNet Si
pair_coeff      * * SpinConv Si

dump            1 all custom 1 XFSET id xu yu zu fx fy fz 
dump_modify     1 format float "%20.15f"
run             0

