Geometry = GenFormat {
  <<< "geometry.gen"
}

Driver = {}

Hamiltonian = xTB {
  Method = "GFN1-xTB"
  MaxSCCIterations = 400
  #Mixer = Broyden {
  #  MixingParameter = 0.10
  #  InverseJacobiWeight = 0.5
  #  WeightFactor = 0.5
  #}
  KPointsAndWeights = SupercellFolding {
    4  0  0
    0  4  0
    0  0  4
    0.0 0.0 0.0
  }
}

Options = {
  WriteResultsTag = Yes
  #WriteAutotestTag = Yes
}

Analysis = {
  CalculateForces = Yes
}

ParserOptions = {
  ParserVersion = 12
}
