Geometry = GenFormat {
128 S
Mn Si
1  1 1.424168 4.242503 4.242503
2  1 1.414168 4.242503 9.899173
3  1 1.414168 9.899173 4.242503
4  1 1.414168 9.899173 9.899173
5  1 7.070838 4.242503 4.242503
6  1 7.070838 4.242503 9.899173
7  1 7.070838 9.899173 4.242503
8  1 7.070838 9.899173 9.899173
9  1 1.414168 1.414168 4.242503
10  1 1.414168 1.414168 9.899173
11  1 1.414168 7.070838 4.242503
12  1 1.414168 7.070838 9.899173
13  1 7.070838 1.414168 4.242503
14  1 7.070838 1.414168 9.899173
15  1 7.070838 7.070838 4.242503
16  1 7.070838 7.070838 9.899173
17  1 2.828335 0.000000 0.000000
18  1 2.828335 0.000000 5.656670
19  1 2.828335 5.656670 0.000000
20  1 2.828335 5.656670 5.656670
21  1 8.485005 0.000000 0.000000
22  1 8.485005 0.000000 5.656670
23  1 8.485005 5.656670 0.000000
24  1 8.485005 5.656670 5.656670
25  1 1.414168 1.414168 1.414168
26  1 1.414168 1.414168 7.070838
27  1 1.414168 7.070838 1.414168
28  1 1.414168 7.070838 7.070838
29  1 7.070838 1.414168 1.414168
30  1 7.070838 1.414168 7.070838
31  1 7.070838 7.070838 1.414168
32  1 7.070838 7.070838 7.070838
33  1 1.414168 4.242503 1.414168
34  1 1.414168 4.242503 7.070838
35  1 1.414168 9.899173 1.414168
36  1 1.414168 9.899173 7.070838
37  1 7.070838 4.242503 1.414168
38  1 7.070838 4.242503 7.070838
39  1 7.070838 9.899173 1.414168
40  1 7.070838 9.899173 7.070838
41  1 2.828335 2.828335 2.828335
42  1 2.828335 2.828335 8.485005
43  1 2.828335 8.485005 2.828335
44  1 2.828335 8.485005 8.485005
45  1 8.485005 2.828335 2.828335
46  1 8.485005 2.828335 8.485005
47  1 8.485005 8.485005 2.828335
48  1 8.485005 8.485005 8.485005
49  1 4.242503 4.242503 1.414168
50  1 4.242503 4.242503 7.070838
51  1 4.242503 9.899173 1.414168
52  1 4.242503 9.899173 7.070838
53  1 9.899173 4.242503 1.414168
54  1 9.899173 4.242503 7.070838
55  1 9.899173 9.899173 1.414168
56  1 9.899173 9.899173 7.070838
57  1 4.242503 1.414168 1.414168
58  1 4.242503 1.414168 7.070838
59  1 4.242503 7.070838 1.414168
60  1 4.242503 7.070838 7.070838
61  1 9.899173 1.414168 1.414168
62  1 9.899173 1.414168 7.070838
63  1 9.899173 7.070838 1.414168
64  1 9.899173 7.070838 7.070838
65  1 0.000000 0.000000 2.828335
66  1 0.000000 0.000000 8.485005
67  1 0.000000 5.656670 2.828335
68  1 0.000000 5.656670 8.485005
69  1 5.656670 0.000000 2.828335
70  1 5.656670 0.000000 8.485005
71  1 5.656670 5.656670 2.828335
72  1 5.656670 5.656670 8.485005
73  1 4.242503 1.414168 4.242503
74  1 4.242503 1.414168 9.899173
75  1 4.242503 7.070838 4.242503
76  1 4.242503 7.070838 9.899173
77  1 9.899173 1.414168 4.242503
78  1 9.899173 1.414168 9.899173
79  1 9.899173 7.070838 4.242503
80  1 9.899173 7.070838 9.899173
81  1 4.242503 4.242503 4.242503
82  1 4.242503 4.242503 9.899173
83  1 4.242503 9.899173 4.242503
84  1 4.242503 9.899173 9.899173
85  1 9.899173 4.242503 4.242503
86  1 9.899173 4.242503 9.899173
87  1 9.899173 9.899173 4.242503
88  1 9.899173 9.899173 9.899173
89  1 0.000000 2.828335 0.000000
90  1 0.000000 2.828335 5.656670
91  1 0.000000 8.485005 0.000000
92  1 0.000000 8.485005 5.656670
93  1 5.656670 2.828335 0.000000
94  1 5.656670 2.828335 5.656670
95  1 5.656670 8.485005 0.000000
96  1 5.656670 8.485005 5.656670
97  2 0.000000 0.000000 0.000000
98  2 0.000000 0.000000 5.656670
99  2 0.000000 5.656670 0.000000
100  2 0.000000 5.656670 5.656670
101  2 5.656670 0.000000 0.000000
102  2 5.656670 0.000000 5.656670
103  2 5.656670 5.656670 0.000000
104  2 5.656670 5.656670 5.656670
105  2 0.000000 2.828335 2.828335
106  2 0.000000 2.828335 8.485005
107  2 0.000000 8.485005 2.828335
108  2 0.000000 8.485005 8.485005
109  2 5.656670 2.828335 2.828335
110  2 5.656670 2.828335 8.485005
111  2 5.656670 8.485005 2.828335
112  2 5.656670 8.485005 8.485005
113  2 2.828335 0.000000 2.828335
114  2 2.828335 0.000000 8.485005
115  2 2.828335 5.656670 2.828335
116  2 2.828335 5.656670 8.485005
117  2 8.485005 0.000000 2.828335
118  2 8.485005 0.000000 8.485005
119  2 8.485005 5.656670 2.828335
120  2 8.485005 5.656670 8.485005
121  2 2.828335 2.828335 0.000000
122  2 2.828335 2.828335 5.656670
123  2 2.828335 8.485005 0.000000
124  2 2.828335 8.485005 5.656670
125  2 8.485005 2.828335 0.000000
126  2 8.485005 2.828335 5.656670
127  2 8.485005 8.485005 0.000000
128  2 8.485005 8.485005 5.656670
0.000000 0.000000 0.000000
11.3133401871 0.000000 0.000000
0.000000 11.3133401871    0.000000
0.000000 0.000000    11.3133401871
}
Driver = {}
Hamiltonian = xTB {
  Method = "GFN1-xTB"
  MaxSCCIterations = 400
  KPointsAndWeights = SupercellFolding {
3  0  0
0  3  0
0  0  3
0.0 0.0 0.0
  }
  Filling = MethfesselPaxton {
    Order = 2
    Temperature [eV] = 0.02
    IndependentKFilling = No
  }
  ShellResolvedSCC = Yes
  SCC = Yes
  ReadInitialCharges = No
  InitialCharges = {}
  SCCTolerance = 1.0000000000000001E-005
  EwaldParameter = 0.0000000000000000
  EwaldTolerance = 1.0000000000000001E-009
  ConvergentSCCOnly = Yes
  SpinPolarisation = {}
  ElectricField = {}
  Solver = RelativelyRobust {}
  Charge = 0.0000000000000000
  Dispersion = {}
  Solvation = {}
  Electrostatics = GammaFunctional {}
  Differentiation = FiniteDiff {
    Delta = 1.2207031250000000E-004
  }
  ForceEvaluation = "Traditional"
  Mixer = Broyden {
    MixingParameter = 0.20000000000000001
    InverseJacobiWeight = 1.0000000000000000E-002
    MinimalWeight = 1.0000000000000000
    MaximalWeight = 100000.00000000000
    WeightFactor = 1.0000000000000000E-002
  }
}
Options = {
  WriteResultsTag = Yes
  WriteDetailedOut = Yes
  WriteAutotestTag = No
  WriteDetailedXML = No
  RestartFrequency = 20
  RandomSeed = 0
  WriteHS = No
  WriteRealHS = No
  MinimiseMemoryUsage = No
  ShowFoldedCoords = No
  TimingVerbosity = 1
  WriteCharges = Yes
  WriteChargesAsText = No
  BinaryAccessTypes = {
 "stream"
  }
}
Analysis = {
  CalculateForces = Yes
  ProjectStates = {}
  WriteEigenvectors = No
  WriteBandOut = Yes
  MullikenAnalysis = Yes
  WriteNetCharges = No
  AtomResolvedEnergies = No
}
ParserOptions = {
  ParserVersion = 13
  WriteHSDInput = Yes
  StopAfterParsing = No
  IgnoreUnprocessedNodes = No
}
Reks = None {}
ExcitedState = {}
Parallel = {
  Groups = 1
  UseOmpThreads = No
  Blacs = BlockSize {
32
  }
}
