units           metal
atom_style      atomic
boundary        p p p

read_data       tmp.lammps

pair_style      snap
pair_coeff 	* * Si_Zuo_Arxiv2019.snapcoeff Si_Zuo_Arxiv2019.snapparam Si

dump            1 all custom 1 XFSET id xu yu zu fx fy fz 
dump_modify     1 format float "%20.15f"
run             0

