units           metal
atom_style      atomic
boundary        p p p

read_data       tmp.lammps

variable elem string "XXXXXX"

pair_style morse	3.620974371	# D0[eV] a[1/A] r0[A] rc[A], 1NN for BCC
pair_coeff 1 1	2.4132	1.3203	3.1359	3.3784	#	Cr-Cr

dump            1 all custom 1 XFSET id xu yu zu fx fy fz 
dump_modify     1 format float "%20.15f"
run             0

