units           metal
atom_style      atomic
boundary        p p p

read_data       tmp.lammps

variable elem string "XXXXXX"

pair_style morse	3.621152323	# D0[eV] a[1/A] r0[A] rc[A], 1NN for FCC
pair_coeff 1 1	0.6832	1.2844	2.5605	3.0908	#	Cu-Cu

dump            1 all custom 1 XFSET id xu yu zu fx fy fz 
dump_modify     1 format float "%20.15f"
run             0

