Geometry = GenFormat {
  <<< "geometry.gen"
}

Driver = {}

Hamiltonian = xTB {
  SCC = Yes
  SCCTolerance = 1.0e-3 # 0.001
  Method = "GFN2-xTB"
  KPointsAndWeights = SupercellFolding {
    6 0 0
    0 6 0
    0 0 6
    0.5 0.5 0.5
  }
}

Options = {
  WriteResultsTag = Yes
  #WriteAutotestTag = Yes
}

Analysis = {
  CalculateForces = Yes
}

ParserOptions = {
  ParserVersion = 11
}
