units           metal
atom_style      atomic
boundary        p p p

read_data       tmp.lammps

variable elem string "XXXXXX"

pair_style smatb # R0(A)   p       q     A(eV)   xi(eV)  Rcs(A)   Rc(A), 5NN: Rcs=5NN, Rc=(5NN+6NN)/2										
pair_coeff 1 1	2.4627	7.1280	1.4256	0.2602	2.7695	4.9	5.3	#	Fe	Fe

dump            1 all custom 1 XFSET id xu yu zu fx fy fz 
dump_modify     1 format float "%20.15f"
run             0

