units           metal
atom_style      atomic
boundary        p p p

read_data       tmp.lammps

variable elem string "XXXXXX"

pair_style morse	3.536709352	# D0[eV] a[1/A] r0[A] rc[A], 1NN for HCP
pair_coeff 1 1	1.1849	1.1840	2.4904	3.0240	#	Co-Co

dump            1 all custom 1 XFSET id xu yu zu fx fy fz 
dump_modify     1 format float "%20.15f"
run             0

